c
c start with comments
c
p cnf 24 16
7 -4 0
6 4 20 20 0
-8 -21 18 20 0
16 -13 -12 3 0
-7 14 14 0
1 17 24 5 0
-13 9 3 5 15 0
-16 -19 0
6 17 -14 15 0
-2 11 4 4 -5 0
5 -3 -12 0
10 23 8 17 -9 6 0
13 -22 0
9 -21 -11 0
8 -12 17 -23 0
-15 22 0